(set-logic HORN)
(set-info :source |
    Benchmark: C_VC
    Output by Princess (http://www.philipp.ruemmer.org/princess.shtml)
|)
(set-info :status sat)
(declare-heap Heap Addr HeapObject
 defObj
 ((HeapObject 0) (TSLL 0)) (
  (
   (O_Int (getInt Int))
   (O_UInt (getUInt Int))
   (O_Addr (getAddr Addr))
   (O_TSLL (getTSLL TSLL))
   (defObj)
  )
  (
   (TSLL (next Addr) (inner Addr))
  )
))
(declare-fun inv_main10 (Heap Addr) Bool)
(declare-fun inv_main102 (Heap Addr Addr) Bool)
(declare-fun inv_main105 (Heap Addr Addr) Bool)
(declare-fun inv_main107 (Heap Addr Addr) Bool)
(declare-fun inv_main11 (Heap Addr) Bool)
(declare-fun inv_main110 (Heap Addr Addr) Bool)
(declare-fun inv_main112 (Heap Addr Addr) Bool)
(declare-fun inv_main117 (Heap Addr Addr) Bool)
(declare-fun inv_main14 (Heap Addr) Bool)
(declare-fun inv_main15 (Heap Addr Addr) Bool)
(declare-fun inv_main16 (Heap Addr) Bool)
(declare-fun inv_main19 (Heap Addr) Bool)
(declare-fun inv_main2 (Heap) Bool)
(declare-fun inv_main21 (Heap Addr Addr) Bool)
(declare-fun inv_main26 (Heap Addr Addr) Bool)
(declare-fun inv_main3 (Heap Addr) Bool)
(declare-fun inv_main30 (Heap Addr Addr) Bool)
(declare-fun inv_main31 (Heap Addr Addr Addr) Bool)
(declare-fun inv_main32 (Heap Addr Addr) Bool)
(declare-fun inv_main37 (Heap Addr Addr) Bool)
(declare-fun inv_main42 (Heap Addr Addr) Bool)
(declare-fun inv_main45 (Heap Addr Addr) Bool)
(declare-fun inv_main46 (Heap Addr Addr) Bool)
(declare-fun inv_main49 (Heap Addr Addr) Bool)
(declare-fun inv_main50 (Heap Addr Addr Addr) Bool)
(declare-fun inv_main51 (Heap Addr Addr) Bool)
(declare-fun inv_main54 (Heap Addr Addr) Bool)
(declare-fun inv_main56 (Heap Addr Addr Addr) Bool)
(declare-fun inv_main64 (Heap Addr Addr) Bool)
(declare-fun inv_main69 (Heap Addr Addr Int) Bool)
(declare-fun inv_main7 (Heap Addr) Bool)
(declare-fun inv_main70 (Heap Addr Addr Int Addr) Bool)
(declare-fun inv_main76 (Heap Addr Addr Int Addr) Bool)
(declare-fun inv_main78 (Heap Addr Addr Int Addr) Bool)
(declare-fun inv_main81 (Heap Addr Addr Int Addr) Bool)
(declare-fun inv_main83 (Heap Addr Addr Int Addr) Bool)
(declare-fun inv_main86 (Heap Addr Addr Int Addr) Bool)
(declare-fun inv_main88 (Heap Addr Addr Int Addr) Bool)
(declare-fun inv_main92 (Heap Addr Addr Int Addr) Bool)
(declare-fun inv_main94 (Heap Addr Addr Int Addr) Bool)
(declare-fun inv_main99 (Heap Addr Addr) Bool)
(assert (forall ((var0 Heap)) (or (not (= var0 emptyHeap)) (inv_main2 var0))))
(assert (forall ((var0 Int) (var1 Addr) (var2 Int) (var3 Addr) (var4 Addr) (var5 Heap)) (or (not (and (inv_main70 var5 var4 var3 var2 var1) (and (and (= nullAddr var1) (and (= var2 0) (not (= nullAddr var1)))) (= var0 1)))) (inv_main78 var5 var4 var3 var0 var1))))
(assert (forall ((var0 Int) (var1 Addr) (var2 Int) (var3 Addr) (var4 Addr) (var5 Heap)) (or (not (and (inv_main70 var5 var4 var3 var2 var1) (and (and (= nullAddr var1) (and (not (= var2 0)) (not (= nullAddr var1)))) (= var0 2)))) (inv_main78 var5 var4 var3 var0 var1))))
(assert (forall ((var0 Int) (var1 Addr) (var2 Int) (var3 Addr) (var4 Addr) (var5 Heap)) (or (not (and (inv_main70 var5 var4 var3 var2 var1) (and (and (not (= nullAddr var1)) (and (= var2 0) (not (= nullAddr var1)))) (= var0 1)))) (inv_main76 var5 var4 var3 var0 var1))))
(assert (forall ((var0 Int) (var1 Addr) (var2 Int) (var3 Addr) (var4 Addr) (var5 Heap)) (or (not (and (inv_main70 var5 var4 var3 var2 var1) (and (and (not (= nullAddr var1)) (and (not (= var2 0)) (not (= nullAddr var1)))) (= var0 2)))) (inv_main76 var5 var4 var3 var0 var1))))
(assert (forall ((var0 Addr) (var1 Addr) (var2 Heap) (var3 Addr) (var4 Addr) (var5 Addr) (var6 Heap)) (or (not (and (inv_main99 var6 var5 var4) (and (= nullAddr var3) (and (not (= nullAddr var3)) (and (is-O_TSLL (read var6 var5)) (and (and (and (= var2 var6) (= var1 var5)) (= var0 var4)) (= var3 (inner (getTSLL (read var6 var5)))))))))) (inv_main107 var2 var1 var3))))
(assert (forall ((var0 Addr) (var1 Addr) (var2 Addr) (var3 Heap)) (or (not (and (inv_main56 var3 var2 var1 var0) (not (= var0 nullAddr)))) (inv_main26 var3 var2 var1))))
(assert (forall ((var0 Addr) (var1 Addr) (var2 Heap) (var3 Addr) (var4 Addr) (var5 Addr) (var6 Heap) (var7 Int) (var8 Addr) (var9 Addr) (var10 Addr) (var11 Heap)) (or (not (and (inv_main56 var11 var10 var9 var8) (and (and (not (= var7 0)) (and (and (= var8 nullAddr) (is-O_TSLL (read var11 var9))) (and (and (and (= var6 var11) (= var5 var10)) (= var4 var9)) (= var3 (inner (getTSLL (read var11 var9))))))) (and (and (and (= var2 var6) (= var1 var5)) (= var0 var4)) (or (and (= var3 nullAddr) (= var7 1)) (and (not (= var3 nullAddr)) (= var7 0))))))) (inv_main26 var2 var1 var0))))
(assert (forall ((var0 Addr) (var1 Addr) (var2 Heap)) (or (not (and (inv_main21 var2 var1 var0) (not (= var0 nullAddr)))) (inv_main26 var2 var1 var1))))
(assert (forall ((var0 Addr) (var1 Heap) (var2 Addr) (var3 Addr) (var4 Heap) (var5 Int) (var6 Addr) (var7 Addr) (var8 Heap)) (or (not (and (inv_main21 var8 var7 var6) (and (and (not (= var5 0)) (and (and (= var6 nullAddr) (is-O_TSLL (read var8 var7))) (and (and (= var4 var8) (= var3 var7)) (= var2 (inner (getTSLL (read var8 var7))))))) (and (and (= var1 var4) (= var0 var3)) (or (and (= var2 nullAddr) (= var5 1)) (and (not (= var2 nullAddr)) (= var5 0))))))) (inv_main26 var1 var0 var0))))
(assert (forall ((var0 Addr) (var1 Int) (var2 Addr) (var3 Addr) (var4 Heap)) (or (not (and (inv_main81 var4 var3 var2 var1 var0) (and (is-O_TSLL (read var4 var0)) (= nullAddr (next (getTSLL (read var4 var0))))))) (inv_main86 var4 var3 var2 var1 var0))))
(assert (forall ((var0 Addr) (var1 Addr) (var2 Heap)) (or (not (and (inv_main105 var2 var1 var0) (and (is-O_TSLL (read var2 var0)) (not (= nullAddr (inner (getTSLL (read var2 var0)))))))) (inv_main112 var2 var1 var0))))
(assert (forall ((var0 Addr) (var1 Addr) (var2 Heap)) (or (not (and (inv_main105 var2 var1 var0) (and (is-O_TSLL (read var2 var0)) (= nullAddr (inner (getTSLL (read var2 var0))))))) (inv_main110 var2 var1 var0))))
(assert (forall ((var0 Addr) (var1 Int) (var2 Addr) (var3 Addr) (var4 Heap)) (or (not (and (inv_main70 var4 var3 var2 var1 var0) (and (not (<= 0 (+ 1 (* (- 1) var1)))) (= nullAddr var0)))) (inv_main94 var4 var3 var2 var1 var0))))
(assert (forall ((var0 Addr) (var1 Addr) (var2 Heap)) (or (not (and (inv_main10 var2 var1) (and (is-O_TSLL (read var2 var1)) (= var0 (inner (getTSLL (read var2 var1))))))) (inv_main21 var2 var1 var0))))
(assert (forall ((var0 Addr) (var1 TSLL) (var2 Heap) (var3 Addr) (var4 Heap) (var5 Addr) (var6 Int) (var7 Addr) (var8 Addr) (var9 Heap)) (or (not (and (inv_main32 var9 var8 var7) (and (and (and (= var6 0) (and (not (= var5 nullAddr)) (and (and (not (= nullAddr var5)) (and (is-O_TSLL (read var9 var7)) (is-O_TSLL (read var9 var7)))) (and (and (= var4 (write var9 var7 (O_TSLL (TSLL nullAddr (inner (getTSLL (read var9 var7))))))) (= var3 var8)) (= var5 var7))))) (= var2 (newHeap (alloc var4 (O_TSLL var1))))) (= var0 (newAddr (alloc var4 (O_TSLL var1))))))) (inv_main50 var2 var3 var5 var0))))
(assert (forall ((var0 Addr) (var1 Heap) (var2 Addr) (var3 Addr) (var4 Addr) (var5 Heap) (var6 Addr) (var7 Addr) (var8 Addr) (var9 Heap)) (or (not (and (inv_main102 var9 var8 var7) (and (not (= nullAddr var6)) (and (and (is-O_TSLL (read var9 var8)) (and (and (and (= var5 var9) (= var4 var8)) (= var3 var7)) (= var2 (next (getTSLL (read var9 var8)))))) (and (and (= var1 (write var5 var4 defObj)) (= var0 var4)) (= var6 var2)))))) (inv_main99 var1 var6 var6))))
(assert (forall ((var0 Addr) (var1 Int) (var2 Addr) (var3 Heap) (var4 Addr) (var5 Addr) (var6 Addr) (var7 Int) (var8 Addr) (var9 Addr) (var10 Heap)) (or (not (and (inv_main92 var10 var9 var8 var7 var6) (and (not (= nullAddr var5)) (and (= nullAddr var4) (and (is-O_TSLL (read var10 var8)) (and (and (and (and (and (= var3 var10) (= var5 var9)) (= var2 var8)) (= var1 var7)) (= var0 var6)) (= var4 (next (getTSLL (read var10 var8)))))))))) (inv_main99 var3 var5 var4))))
(assert (forall ((var0 Addr) (var1 Heap) (var2 Int) (var3 Addr) (var4 Addr) (var5 Addr) (var6 Heap)) (or (not (and (inv_main26 var6 var5 var4) (and (not (= nullAddr var3)) (and (= nullAddr var3) (and (not (= nullAddr var3)) (and (= var2 0) (and (and (= var1 var6) (= var3 var5)) (= var0 nullAddr)))))))) (inv_main99 var1 var3 var3))))
(assert (forall ((var0 Heap) (var1 Addr) (var2 Addr) (var3 Heap)) (or (not (and (inv_main3 var3 var2) (and (and (= var1 nullAddr) (and (is-O_TSLL (read var3 var2)) (is-O_TSLL (read var3 var2)))) (and (= var0 (write var3 var2 (O_TSLL (TSLL nullAddr (inner (getTSLL (read var3 var2))))))) (= var1 var2))))) (inv_main7 var0 var1))))
(assert (forall ((var0 Heap) (var1 Addr) (var2 Int) (var3 Addr) (var4 Heap)) (or (not (and (inv_main3 var4 var3) (and (not (= var2 0)) (and (and (not (= var1 nullAddr)) (and (is-O_TSLL (read var4 var3)) (is-O_TSLL (read var4 var3)))) (and (= var0 (write var4 var3 (O_TSLL (TSLL nullAddr (inner (getTSLL (read var4 var3))))))) (= var1 var3)))))) (inv_main11 var0 var1))))
(assert (forall ((var0 Addr) (var1 Int) (var2 Addr) (var3 Addr) (var4 Heap)) (or (not (and (inv_main69 var4 var3 var2 var1) (and (is-O_TSLL (read var4 var2)) (= var0 (inner (getTSLL (read var4 var2))))))) (inv_main70 var4 var3 var2 var1 var0))))
(assert (forall ((var0 Addr) (var1 Addr) (var2 Int) (var3 Addr) (var4 Addr) (var5 Heap) (var6 Addr) (var7 Int) (var8 Addr) (var9 Addr) (var10 Heap)) (or (not (and (inv_main86 var10 var9 var8 var7 var6) (and (is-O_TSLL (read var10 var6)) (and (and (and (and (and (= var5 var10) (= var4 var9)) (= var3 var8)) (= var2 var7)) (= var1 var6)) (= var0 (inner (getTSLL (read var10 var6)))))))) (inv_main70 var5 var4 var3 var2 var0))))
(assert (forall ((var0 Addr) (var1 Int) (var2 Addr) (var3 Addr) (var4 Heap)) (or (not (and (inv_main70 var4 var3 var2 var1 var0) (and (<= 0 (+ 1 (* (- 1) var1))) (= nullAddr var0)))) (inv_main92 var4 var3 var2 var1 var0))))
(assert (forall ((var0 Heap) (var1 Addr) (var2 Addr) (var3 Heap)) (or (not (and (inv_main49 var3 var2 var1) (and (and (and (is-O_TSLL (read var3 var1)) (is-O_TSLL (read var3 (inner (getTSLL (read var3 var1)))))) (is-O_TSLL (read var3 (inner (getTSLL (read var3 var1)))))) (= var0 (write var3 (inner (getTSLL (read var3 var1))) (O_TSLL (TSLL nullAddr (inner (getTSLL (read var3 (inner (getTSLL (read var3 var1))))))))))))) (inv_main51 var0 var2 var1))))
(assert (forall ((var0 Addr) (var1 Addr) (var2 Addr) (var3 Heap) (var4 Addr) (var5 Addr) (var6 Heap)) (or (not (and (inv_main30 var6 var5 var4) (and (is-O_TSLL (read var6 var4)) (and (and (and (= var3 var6) (= var2 var5)) (= var1 var4)) (= var0 (next (getTSLL (read var6 var4)))))))) (inv_main32 var3 var2 var0))))
(assert (forall ((var0 Addr) (var1 Heap) (var2 Addr) (var3 Addr) (var4 Addr) (var5 Heap)) (or (not (and (inv_main32 var5 var4 var3) (and (= var2 nullAddr) (and (and (not (= nullAddr var2)) (and (is-O_TSLL (read var5 var3)) (is-O_TSLL (read var5 var3)))) (and (and (= var1 (write var5 var3 (O_TSLL (TSLL nullAddr (inner (getTSLL (read var5 var3))))))) (= var0 var4)) (= var2 var3)))))) (inv_main42 var1 var0 var2))))
(assert (forall ((var0 Int) (var1 Addr) (var2 Int) (var3 Addr) (var4 Addr) (var5 Heap) (var6 Addr) (var7 Addr) (var8 Int) (var9 Addr) (var10 Addr) (var11 Heap)) (or (not (and (inv_main92 var11 var10 var9 var8 var7) (and (and (not (= nullAddr var6)) (and (is-O_TSLL (read var11 var9)) (and (and (and (and (and (= var5 var11) (= var4 var10)) (= var3 var9)) (= var2 var8)) (= var1 var7)) (= var6 (next (getTSLL (read var11 var9))))))) (= var0 0)))) (inv_main69 var5 var4 var6 var0))))
(assert (forall ((var0 Int) (var1 Addr) (var2 Heap) (var3 Int) (var4 Addr) (var5 Addr) (var6 Addr) (var7 Heap)) (or (not (and (inv_main26 var7 var6 var5) (and (and (not (= nullAddr var4)) (and (not (= nullAddr var4)) (and (= var3 0) (and (and (= var2 var7) (= var4 var6)) (= var1 nullAddr))))) (= var0 0)))) (inv_main69 var2 var4 var4 var0))))
(assert (forall ((var0 Addr) (var1 Int) (var2 Addr) (var3 Addr) (var4 Heap)) (or (not (and (inv_main76 var4 var3 var2 var1 var0) (and (is-O_TSLL (read var4 var0)) (not (= nullAddr (inner (getTSLL (read var4 var0)))))))) (inv_main83 var4 var3 var2 var1 var0))))
(assert (forall ((var0 Addr) (var1 Addr) (var2 Heap)) (or (not (and (inv_main110 var2 var1 var0) (and (is-O_TSLL (read var2 var0)) (not (= nullAddr (next (getTSLL (read var2 var0)))))))) (inv_main117 var2 var1 var0))))
(assert (forall ((var0 Addr) (var1 Addr) (var2 Heap) (var3 Addr) (var4 Addr) (var5 Addr) (var6 Heap)) (or (not (and (inv_main99 var6 var5 var4) (and (= nullAddr var3) (and (is-O_TSLL (read var6 var5)) (and (and (and (= var2 var6) (= var1 var5)) (= var0 var4)) (= var3 (inner (getTSLL (read var6 var5))))))))) (inv_main102 var2 var1 var3))))
(assert (forall ((var0 Addr) (var1 Addr) (var2 Addr) (var3 Heap) (var4 Addr) (var5 Addr) (var6 Heap)) (or (not (and (inv_main110 var6 var5 var4) (and (and (and (is-O_TSLL (read var6 var4)) (= nullAddr (next (getTSLL (read var6 var4))))) (and (and (= var3 (write var6 var4 defObj)) (= var2 var5)) (= var1 var4))) (= var0 nullAddr)))) (inv_main102 var3 var2 var0))))
(assert (forall ((var0 Addr) (var1 Addr) (var2 Heap) (var3 Addr) (var4 Addr) (var5 Addr) (var6 Heap)) (or (not (and (inv_main99 var6 var5 var4) (and (not (= nullAddr var3)) (and (not (= nullAddr var3)) (and (is-O_TSLL (read var6 var5)) (and (and (and (= var2 var6) (= var1 var5)) (= var0 var4)) (= var3 (inner (getTSLL (read var6 var5)))))))))) (inv_main105 var2 var1 var3))))
(assert (forall ((var0 Addr) (var1 Heap) (var2 Addr) (var3 Int) (var4 Addr) (var5 Addr) (var6 Heap)) (or (not (and (inv_main32 var6 var5 var4) (and (not (= var3 0)) (and (not (= var2 nullAddr)) (and (and (not (= nullAddr var2)) (and (is-O_TSLL (read var6 var4)) (is-O_TSLL (read var6 var4)))) (and (and (= var1 (write var6 var4 (O_TSLL (TSLL nullAddr (inner (getTSLL (read var6 var4))))))) (= var0 var5)) (= var2 var4))))))) (inv_main46 var1 var0 var2))))
(assert (forall ((var0 Heap) (var1 Addr) (var2 Addr) (var3 Addr) (var4 Heap)) (or (not (and (inv_main31 var4 var3 var2 var1) (and (and (is-O_TSLL (read var4 var2)) (is-O_TSLL (read var4 var2))) (= var0 (write var4 var2 (O_TSLL (TSLL var1 (inner (getTSLL (read var4 var2)))))))))) (inv_main30 var0 var3 var2))))
(assert (forall ((var0 Addr) (var1 Int) (var2 Addr) (var3 Addr) (var4 Heap)) (or (not (and (inv_main76 var4 var3 var2 var1 var0) (and (is-O_TSLL (read var4 var0)) (= nullAddr (inner (getTSLL (read var4 var0))))))) (inv_main81 var4 var3 var2 var1 var0))))
(assert (forall ((var0 Addr) (var1 Addr) (var2 Addr) (var3 Heap)) (or (not (and (inv_main45 var3 var2 var1) (and (is-O_TSLL (read var3 var1)) (= var0 (inner (getTSLL (read var3 var1))))))) (inv_main56 var3 var2 var1 var0))))
(assert (forall ((var0 Addr) (var1 Heap) (var2 Addr) (var3 Addr) (var4 Heap) (var5 Int) (var6 Addr) (var7 Addr) (var8 Heap)) (or (not (and (inv_main21 var8 var7 var6) (and (and (= var5 0) (and (and (= var6 nullAddr) (is-O_TSLL (read var8 var7))) (and (and (= var4 var8) (= var3 var7)) (= var2 (inner (getTSLL (read var8 var7))))))) (and (and (= var1 var4) (= var0 var3)) (or (and (= var2 nullAddr) (= var5 1)) (and (not (= var2 nullAddr)) (= var5 0))))))) (inv_main19 var1 var0))))
(assert (forall ((var0 Addr) (var1 TSLL) (var2 Heap) (var3 Heap) (var4 Addr) (var5 Int) (var6 Addr) (var7 Heap)) (or (not (and (inv_main3 var7 var6) (and (and (and (= var5 0) (and (and (not (= var4 nullAddr)) (and (is-O_TSLL (read var7 var6)) (is-O_TSLL (read var7 var6)))) (and (= var3 (write var7 var6 (O_TSLL (TSLL nullAddr (inner (getTSLL (read var7 var6))))))) (= var4 var6)))) (= var2 (newHeap (alloc var3 (O_TSLL var1))))) (= var0 (newAddr (alloc var3 (O_TSLL var1))))))) (inv_main15 var2 var4 var0))))
(assert (forall ((var0 Addr) (var1 Heap) (var2 Addr) (var3 Addr) (var4 Addr) (var5 Heap)) (or (not (and (inv_main32 var5 var4 var3) (and (and (= nullAddr var2) (and (is-O_TSLL (read var5 var3)) (is-O_TSLL (read var5 var3)))) (and (and (= var1 (write var5 var3 (O_TSLL (TSLL nullAddr (inner (getTSLL (read var5 var3))))))) (= var0 var4)) (= var2 var3))))) (inv_main37 var1 var0 var2))))
(assert (forall ((var0 Heap) (var1 Addr) (var2 Addr) (var3 Heap)) (or (not (and (inv_main46 var3 var2 var1) (and (and (is-O_TSLL (read var3 var1)) (is-O_TSLL (read var3 var1))) (= var0 (write var3 var1 (O_TSLL (TSLL (next (getTSLL (read var3 var1))) nullAddr))))))) (inv_main45 var0 var2 var1))))
(assert (forall ((var0 Heap) (var1 Addr) (var2 Addr) (var3 Heap)) (or (not (and (inv_main51 var3 var2 var1) (and (and (and (is-O_TSLL (read var3 var1)) (is-O_TSLL (read var3 (inner (getTSLL (read var3 var1)))))) (is-O_TSLL (read var3 (inner (getTSLL (read var3 var1)))))) (= var0 (write var3 (inner (getTSLL (read var3 var1))) (O_TSLL (TSLL (next (getTSLL (read var3 (inner (getTSLL (read var3 var1)))))) nullAddr))))))) (inv_main45 var0 var2 var1))))
(assert (forall ((var0 Heap) (var1 Addr) (var2 Heap)) (or (not (and (inv_main11 var2 var1) (and (and (is-O_TSLL (read var2 var1)) (is-O_TSLL (read var2 var1))) (= var0 (write var2 var1 (O_TSLL (TSLL (next (getTSLL (read var2 var1))) nullAddr))))))) (inv_main10 var0 var1))))
(assert (forall ((var0 Heap) (var1 Addr) (var2 Heap)) (or (not (and (inv_main16 var2 var1) (and (and (and (is-O_TSLL (read var2 var1)) (is-O_TSLL (read var2 (inner (getTSLL (read var2 var1)))))) (is-O_TSLL (read var2 (inner (getTSLL (read var2 var1)))))) (= var0 (write var2 (inner (getTSLL (read var2 var1))) (O_TSLL (TSLL (next (getTSLL (read var2 (inner (getTSLL (read var2 var1)))))) nullAddr))))))) (inv_main10 var0 var1))))
(assert (forall ((var0 Heap) (var1 Addr) (var2 Heap)) (or (not (and (inv_main14 var2 var1) (and (and (and (is-O_TSLL (read var2 var1)) (is-O_TSLL (read var2 (inner (getTSLL (read var2 var1)))))) (is-O_TSLL (read var2 (inner (getTSLL (read var2 var1)))))) (= var0 (write var2 (inner (getTSLL (read var2 var1))) (O_TSLL (TSLL nullAddr (inner (getTSLL (read var2 (inner (getTSLL (read var2 var1))))))))))))) (inv_main16 var0 var1))))
(assert (forall ((var0 Addr) (var1 Int) (var2 Addr) (var3 Addr) (var4 Heap)) (or (not (and (inv_main81 var4 var3 var2 var1 var0) (and (is-O_TSLL (read var4 var0)) (not (= nullAddr (next (getTSLL (read var4 var0)))))))) (inv_main88 var4 var3 var2 var1 var0))))
(assert (forall ((var0 Addr) (var1 TSLL) (var2 Heap) (var3 Heap)) (or (not (and (inv_main2 var3) (and (= var2 (newHeap (alloc var3 (O_TSLL var1)))) (= var0 (newAddr (alloc var3 (O_TSLL var1))))))) (inv_main3 var2 var0))))
(assert (forall ((var0 Addr) (var1 TSLL) (var2 Heap) (var3 Int) (var4 Addr) (var5 Addr) (var6 Heap)) (or (not (and (inv_main26 var6 var5 var4) (and (and (not (= var3 0)) (= var2 (newHeap (alloc var6 (O_TSLL var1))))) (= var0 (newAddr (alloc var6 (O_TSLL var1))))))) (inv_main31 var2 var5 var4 var0))))
(assert (forall ((var0 Heap) (var1 Addr) (var2 Addr) (var3 Addr) (var4 Heap)) (or (not (and (inv_main50 var4 var3 var2 var1) (and (and (is-O_TSLL (read var4 var2)) (is-O_TSLL (read var4 var2))) (= var0 (write var4 var2 (O_TSLL (TSLL (next (getTSLL (read var4 var2))) var1))))))) (inv_main49 var0 var3 var2))))
(assert (forall ((var0 Heap) (var1 Addr) (var2 Addr) (var3 Heap)) (or (not (and (inv_main15 var3 var2 var1) (and (and (is-O_TSLL (read var3 var2)) (is-O_TSLL (read var3 var2))) (= var0 (write var3 var2 (O_TSLL (TSLL (next (getTSLL (read var3 var2))) var1))))))) (inv_main14 var0 var2))))
(assert (forall ((var0 Addr) (var1 Addr) (var2 Heap) (var3 Addr) (var4 Addr) (var5 Addr) (var6 Heap) (var7 Int) (var8 Addr) (var9 Addr) (var10 Addr) (var11 Heap)) (or (not (and (inv_main56 var11 var10 var9 var8) (and (and (= var7 0) (and (and (= var8 nullAddr) (is-O_TSLL (read var11 var9))) (and (and (and (= var6 var11) (= var5 var10)) (= var4 var9)) (= var3 (inner (getTSLL (read var11 var9))))))) (and (and (and (= var2 var6) (= var1 var5)) (= var0 var4)) (or (and (= var3 nullAddr) (= var7 1)) (and (not (= var3 nullAddr)) (= var7 0))))))) (inv_main54 var2 var1 var0))))
(assert (forall ((var0 Addr) (var1 Heap) (var2 Int) (var3 Addr) (var4 Addr) (var5 Addr) (var6 Heap)) (or (not (and (inv_main26 var6 var5 var4) (and (= nullAddr var3) (and (= var2 0) (and (and (= var1 var6) (= var3 var5)) (= var0 nullAddr)))))) (inv_main64 var1 var3 var3))))
(assert (forall ((var0 Addr) (var1 Heap)) (not (and (inv_main3 var1 var0) (not (is-O_TSLL (read var1 var0)))))))
(assert (forall ((var0 Addr) (var1 Heap)) (not (and (inv_main3 var1 var0) (and (is-O_TSLL (read var1 var0)) (not (is-O_TSLL (read var1 var0))))))))
(assert (forall ((var0 Addr) (var1 Heap)) (not (inv_main7 var1 var0))))
(assert (forall ((var0 Addr) (var1 Heap)) (not (and (inv_main11 var1 var0) (not (is-O_TSLL (read var1 var0)))))))
(assert (forall ((var0 Addr) (var1 Heap)) (not (and (inv_main11 var1 var0) (and (is-O_TSLL (read var1 var0)) (not (is-O_TSLL (read var1 var0))))))))
(assert (forall ((var0 Addr) (var1 Addr) (var2 Heap)) (not (and (inv_main15 var2 var1 var0) (not (is-O_TSLL (read var2 var1)))))))
(assert (forall ((var0 Addr) (var1 Addr) (var2 Heap)) (not (and (inv_main15 var2 var1 var0) (and (is-O_TSLL (read var2 var1)) (not (is-O_TSLL (read var2 var1))))))))
(assert (forall ((var0 Addr) (var1 Heap)) (not (and (inv_main14 var1 var0) (not (is-O_TSLL (read var1 var0)))))))
(assert (forall ((var0 Addr) (var1 Heap)) (not (and (inv_main14 var1 var0) (and (is-O_TSLL (read var1 var0)) (not (is-O_TSLL (read var1 (inner (getTSLL (read var1 var0)))))))))))
(assert (forall ((var0 Addr) (var1 Heap)) (not (and (inv_main14 var1 var0) (and (and (is-O_TSLL (read var1 var0)) (is-O_TSLL (read var1 (inner (getTSLL (read var1 var0)))))) (not (is-O_TSLL (read var1 (inner (getTSLL (read var1 var0)))))))))))
(assert (forall ((var0 Addr) (var1 Heap)) (not (and (inv_main16 var1 var0) (not (is-O_TSLL (read var1 var0)))))))
(assert (forall ((var0 Addr) (var1 Heap)) (not (and (inv_main16 var1 var0) (and (is-O_TSLL (read var1 var0)) (not (is-O_TSLL (read var1 (inner (getTSLL (read var1 var0)))))))))))
(assert (forall ((var0 Addr) (var1 Heap)) (not (and (inv_main16 var1 var0) (and (and (is-O_TSLL (read var1 var0)) (is-O_TSLL (read var1 (inner (getTSLL (read var1 var0)))))) (not (is-O_TSLL (read var1 (inner (getTSLL (read var1 var0)))))))))))
(assert (forall ((var0 Addr) (var1 Heap)) (not (and (inv_main10 var1 var0) (not (is-O_TSLL (read var1 var0)))))))
(assert (forall ((var0 Addr) (var1 Addr) (var2 Heap)) (not (and (inv_main21 var2 var1 var0) (and (= var0 nullAddr) (not (is-O_TSLL (read var2 var1))))))))
(assert (forall ((var0 Addr) (var1 Heap)) (not (inv_main19 var1 var0))))
(assert (forall ((var0 Addr) (var1 Addr) (var2 Addr) (var3 Heap)) (not (and (inv_main31 var3 var2 var1 var0) (not (is-O_TSLL (read var3 var1)))))))
(assert (forall ((var0 Addr) (var1 Addr) (var2 Addr) (var3 Heap)) (not (and (inv_main31 var3 var2 var1 var0) (and (is-O_TSLL (read var3 var1)) (not (is-O_TSLL (read var3 var1))))))))
(assert (forall ((var0 Addr) (var1 Addr) (var2 Heap)) (not (and (inv_main30 var2 var1 var0) (not (is-O_TSLL (read var2 var0)))))))
(assert (forall ((var0 Addr) (var1 Addr) (var2 Heap)) (not (and (inv_main32 var2 var1 var0) (not (is-O_TSLL (read var2 var0)))))))
(assert (forall ((var0 Addr) (var1 Addr) (var2 Heap)) (not (and (inv_main32 var2 var1 var0) (and (is-O_TSLL (read var2 var0)) (not (is-O_TSLL (read var2 var0))))))))
(assert (forall ((var0 Addr) (var1 Addr) (var2 Heap)) (not (inv_main37 var2 var1 var0))))
(assert (forall ((var0 Addr) (var1 Addr) (var2 Heap)) (not (inv_main42 var2 var1 var0))))
(assert (forall ((var0 Addr) (var1 Addr) (var2 Heap)) (not (and (inv_main46 var2 var1 var0) (not (is-O_TSLL (read var2 var0)))))))
(assert (forall ((var0 Addr) (var1 Addr) (var2 Heap)) (not (and (inv_main46 var2 var1 var0) (and (is-O_TSLL (read var2 var0)) (not (is-O_TSLL (read var2 var0))))))))
(assert (forall ((var0 Addr) (var1 Addr) (var2 Addr) (var3 Heap)) (not (and (inv_main50 var3 var2 var1 var0) (not (is-O_TSLL (read var3 var1)))))))
(assert (forall ((var0 Addr) (var1 Addr) (var2 Addr) (var3 Heap)) (not (and (inv_main50 var3 var2 var1 var0) (and (is-O_TSLL (read var3 var1)) (not (is-O_TSLL (read var3 var1))))))))
(assert (forall ((var0 Addr) (var1 Addr) (var2 Heap)) (not (and (inv_main49 var2 var1 var0) (not (is-O_TSLL (read var2 var0)))))))
(assert (forall ((var0 Addr) (var1 Addr) (var2 Heap)) (not (and (inv_main49 var2 var1 var0) (and (is-O_TSLL (read var2 var0)) (not (is-O_TSLL (read var2 (inner (getTSLL (read var2 var0)))))))))))
(assert (forall ((var0 Addr) (var1 Addr) (var2 Heap)) (not (and (inv_main49 var2 var1 var0) (and (and (is-O_TSLL (read var2 var0)) (is-O_TSLL (read var2 (inner (getTSLL (read var2 var0)))))) (not (is-O_TSLL (read var2 (inner (getTSLL (read var2 var0)))))))))))
(assert (forall ((var0 Addr) (var1 Addr) (var2 Heap)) (not (and (inv_main51 var2 var1 var0) (not (is-O_TSLL (read var2 var0)))))))
(assert (forall ((var0 Addr) (var1 Addr) (var2 Heap)) (not (and (inv_main51 var2 var1 var0) (and (is-O_TSLL (read var2 var0)) (not (is-O_TSLL (read var2 (inner (getTSLL (read var2 var0)))))))))))
(assert (forall ((var0 Addr) (var1 Addr) (var2 Heap)) (not (and (inv_main51 var2 var1 var0) (and (and (is-O_TSLL (read var2 var0)) (is-O_TSLL (read var2 (inner (getTSLL (read var2 var0)))))) (not (is-O_TSLL (read var2 (inner (getTSLL (read var2 var0)))))))))))
(assert (forall ((var0 Addr) (var1 Addr) (var2 Heap)) (not (and (inv_main45 var2 var1 var0) (not (is-O_TSLL (read var2 var0)))))))
(assert (forall ((var0 Addr) (var1 Addr) (var2 Addr) (var3 Heap)) (not (and (inv_main56 var3 var2 var1 var0) (and (= var0 nullAddr) (not (is-O_TSLL (read var3 var1))))))))
(assert (forall ((var0 Addr) (var1 Addr) (var2 Heap)) (not (inv_main54 var2 var1 var0))))
(assert (forall ((var0 Addr) (var1 Addr) (var2 Heap)) (not (inv_main64 var2 var1 var0))))
(assert (forall ((var0 Int) (var1 Addr) (var2 Addr) (var3 Heap)) (not (and (inv_main69 var3 var2 var1 var0) (not (is-O_TSLL (read var3 var1)))))))
(assert (forall ((var0 Addr) (var1 Int) (var2 Addr) (var3 Addr) (var4 Heap)) (not (inv_main78 var4 var3 var2 var1 var0))))
(assert (forall ((var0 Addr) (var1 Int) (var2 Addr) (var3 Addr) (var4 Heap)) (not (and (inv_main76 var4 var3 var2 var1 var0) (not (is-O_TSLL (read var4 var0)))))))
(assert (forall ((var0 Addr) (var1 Int) (var2 Addr) (var3 Addr) (var4 Heap)) (not (inv_main83 var4 var3 var2 var1 var0))))
(assert (forall ((var0 Addr) (var1 Int) (var2 Addr) (var3 Addr) (var4 Heap)) (not (and (inv_main81 var4 var3 var2 var1 var0) (not (is-O_TSLL (read var4 var0)))))))
(assert (forall ((var0 Addr) (var1 Int) (var2 Addr) (var3 Addr) (var4 Heap)) (not (inv_main88 var4 var3 var2 var1 var0))))
(assert (forall ((var0 Addr) (var1 Int) (var2 Addr) (var3 Addr) (var4 Heap)) (not (and (inv_main86 var4 var3 var2 var1 var0) (not (is-O_TSLL (read var4 var0)))))))
(assert (forall ((var0 Addr) (var1 Int) (var2 Addr) (var3 Addr) (var4 Heap)) (not (inv_main94 var4 var3 var2 var1 var0))))
(assert (forall ((var0 Addr) (var1 Int) (var2 Addr) (var3 Addr) (var4 Heap)) (not (and (inv_main92 var4 var3 var2 var1 var0) (not (is-O_TSLL (read var4 var2)))))))
(assert (forall ((var0 Addr) (var1 Addr) (var2 Heap)) (not (and (inv_main99 var2 var1 var0) (not (is-O_TSLL (read var2 var1)))))))
(assert (forall ((var0 Addr) (var1 Addr) (var2 Heap)) (not (inv_main107 var2 var1 var0))))
(assert (forall ((var0 Addr) (var1 Addr) (var2 Heap)) (not (and (inv_main105 var2 var1 var0) (not (is-O_TSLL (read var2 var0)))))))
(assert (forall ((var0 Addr) (var1 Addr) (var2 Heap)) (not (inv_main112 var2 var1 var0))))
(assert (forall ((var0 Addr) (var1 Addr) (var2 Heap)) (not (and (inv_main110 var2 var1 var0) (not (is-O_TSLL (read var2 var0)))))))
(assert (forall ((var0 Addr) (var1 Addr) (var2 Heap)) (not (inv_main117 var2 var1 var0))))
(assert (forall ((var0 Addr) (var1 Addr) (var2 Heap)) (not (and (inv_main102 var2 var1 var0) (not (is-O_TSLL (read var2 var1)))))))
(check-sat)
